letting n =  10
letting blocks =  [[1, 2], [1, 3], [1, 4], [2, 1], [2, 3], [2, 6], [3, 1], [3, 2], [3, 4], [3, 9], [4, 1], [4, 4], [4, 10], [5, 4], [5, 6], [5, 7], [5, 10], [6, 2], [6, 4], [6, 5], [6, 8], [7, 1], [7, 7], [8, 3], [8, 4], [8, 10], [9, 2], [9, 6], [10, 2], [10, 3], [10, 6], [10, 10]]
